p cnf 13 26
-13 -8 6 0
13 7 4 0
13 4 2 0
12 -11 -3 0
-12 11 2 0
12 -10 -8 0
12 -10 -2 0
12 -8 -6 0
12 8 -3 0
-12 7 6 0
12 7 2 0
12 -6 1 0
-11 9 8 0
-11 9 -5 0
-11 -8 1 0
-11 -5 -4 0
-10 9 5 0
-10 -8 -6 0
-10 8 -5 0
-10 7 2 0
9 7 -2 0
-8 -7 1 0
-8 -6 -5 0
7 -6 2 0
-5 -3 1 0
4 2 -1 0
